data;

param n:=29;
param p:=3;
param r:=[1] 0 [2] 3 [3] 3 [4] 7 [5] 11 [6] 5 [7] 16 [8] 21 [9] 16 [10] 12 [11] 10 [12] 27 [13] 35 [14] 15 [15] 4 [16] 20 [17] 47 [18] 44 [19] 53 [20] 35 [21] 8 [22] 49 [23] 37 [24] 18 [25] 63 [26] 27 [27] 24 [28] 1 [29] 27 ;
param w:=[1] 35 [2] 49 [3] 39 [4] 74 [5] 91 [6] 32 [7] 33 [8] 14 [9] 96 [10] 10 [11] 6 [12] 36 [13] 74 [14] 17 [15] 69 [16] 56 [17] 30 [18] 21 [19] 93 [20] 94 [21] 26 [22] 91 [23] 93 [24] 88 [25] 71 [26] 84 [27] 50 [28] 44 [29] 38 ;

end;
